1193
0	69	162	246	308
0	66	246	292	308
0	154	294	390	521
0	130	292	398	521
14	137	349	472	580
98	234	367	443	469
59	469	568	658	669
0	197	303	398	436
67	201	333	413	556
486	641	792	824	909
88	262	529	590	669
478	562	649	726	825
247	719	792	909	1007
824	1007	1075	1082	1095
161	495	590	825	904
